peakDumbCharging = 11100; 
Machine = anon_enum(16); 
machineSpeed = [3700,3700,3700,3700,3700,3700,3700,3700,3700,3700,3700,3700,3700,3700,3700,3700]; 
machineLoad = [3700,3700,3700,3700,3700,3700,3700,3700,3700,3700,3700,3700,3700,3700,3700,3700]; 
Car = anon_enum(10); 
demandCar = [6760,14720,19160,1720,8480,1840,7960,6960,23120,6480]; 
arrivalCar = [77,76,72,69,68,54,53,47,44,41]; 
departureCar = [81,82,78,71,73,56,57,52,55,44]; 
